% File represents an instance of a Composite Structure problem to be solved by a CP framework
% Created on 2025-03-26 10:41:24.273
T = 50;
n = 16;
m = 24;
edges = [(2, 1),
(5, 6),
(9, 10),
(13, 14),
(2, 3),
(6, 7),
(10, 11),
(14, 15),
(3, 4),
(7, 8),
(11, 12),
(15, 16),
(5, 1),
(9, 5),
(13, 9),
(2, 6),
(10, 6),
(14, 10),
(3, 7),
(11, 7),
(15, 11),
(4, 8),
(12, 8),
(16, 12)];
counts = [|6, 8, 6, 14,
|6, 8, 6, 16,
|6, 4, 6, 14,
|6, 4, 6, 10,
|6, 12, 6, 14,
|6, 8, 6, 12,
|6, 4, 6, 10,
|4, 2, 4, 10,
|6, 16, 6, 16,
|6, 14, 6, 12,
|6, 10, 6, 10,
|6, 4, 6, 10,
|6, 20, 6, 18,
|6, 20, 6, 12,
|6, 14, 6, 12,
|6, 8, 6, 12|];
